
Gurobi 11.0.0 (linux64) logging started Wed Nov 29 20:38:43 2023

Set parameter LogFile to value "wlp04-p-Location-Of-Facilities-GUROBI.txt"
Gurobi Optimizer version 11.0.0 build v11.0.0rc2 (linux64 - "Ubuntu 22.04.3 LTS")

CPU model: AMD Ryzen 7 5800H with Radeon Graphics, instruction set [SSE2|AVX|AVX2]
Thread count: 8 physical cores, 16 logical processors, using up to 16 threads

Optimize a model with 1777 rows, 639000 columns and 1277500 nonzeros
Model fingerprint: 0xb6641c8d
Variable types: 638500 continuous, 500 integer (0 binary)
Coefficient statistics:
  Matrix range     [1e+00, 1e+02]
  Objective range  [1e+00, 1e+03]
  Bounds range     [1e+00, 1e+00]
  RHS range        [1e+00, 1e+00]
Found heuristic solution: objective 356879.00000
Presolve time: 1.02s
Presolved: 1777 rows, 639000 columns, 1277500 nonzeros
Variable types: 638500 continuous, 500 integer (500 binary)
Deterministic concurrent LP optimizer: primal simplex, dual simplex, and barrier
Showing barrier log only...

Root barrier log...

Ordering time: 0.03s

Barrier statistics:
 AA' NZ     : 6.385e+05
 Factor NZ  : 8.986e+05 (roughly 260 MB of memory)
 Factor Ops : 5.379e+08 (less than 1 second per iteration)
 Threads    : 6

                  Objective                Residual
Iter       Primal          Dual         Primal    Dual     Compl     Time
   0   3.56532006e+06 -5.69814833e+05  1.64e+02 0.00e+00  7.79e+00     2s
   1   5.93779050e+05 -5.19649051e+04  2.34e+01 5.68e-14  1.13e+00     2s
   2   2.16803059e+05  4.97661696e+04  1.36e+00 6.37e-01  1.55e-01     2s
   3   1.85174305e+05  1.10128244e+05  9.74e-02 3.31e-01  6.00e-02     2s
   4   1.75805659e+05  1.20437767e+05  5.41e-02 2.37e-01  4.40e-02     3s
   5   1.70689059e+05  1.25253287e+05  4.08e-02 1.57e-01  3.60e-02     3s
   6   1.66892394e+05  1.26571072e+05  3.33e-02 1.55e-01  3.20e-02     3s
   7   1.64421894e+05  1.28452044e+05  2.92e-02 4.26e-14  2.84e-02     3s
   8   1.55685640e+05  1.31379001e+05  1.67e-02 5.68e-14  1.92e-02     3s
   9   1.51189237e+05  1.32256216e+05  1.22e-02 5.65e-02  1.50e-02     3s
  10   1.46781410e+05  1.33385151e+05  8.56e-03 3.93e-02  1.06e-02     3s
  11   1.44276880e+05  1.33993732e+05  6.65e-03 3.11e-02  8.12e-03     3s
  12   1.41887146e+05  1.34296965e+05  4.91e-03 2.28e-02  5.99e-03     3s
  13   1.39503696e+05  1.34654640e+05  3.17e-03 1.50e-02  3.83e-03     3s
  14   1.37427567e+05  1.34830177e+05  1.65e-03 9.72e-03  2.06e-03     3s
  15   1.36146862e+05  1.34953991e+05  7.38e-04 4.59e-03  9.44e-04     3s
  16   1.35459236e+05  1.35000788e+05  2.58e-04 2.69e-03  3.65e-04     3s
  17   1.35202153e+05  1.35042525e+05  8.45e-05 1.09e-03  1.27e-04     4s

Barrier performed 17 iterations in 3.57 seconds (5.33 work units)
Barrier solve interrupted - model solved by another algorithm

Concurrent spin time: 0.57s (can be avoided by choosing Method=3)

Solved with primal simplex

Root relaxation: objective 1.350690e+05, 74697 iterations, 2.93 seconds (2.20 work units)

    Nodes    |    Current Node    |     Objective Bounds      |     Work
 Expl Unexpl |  Obj  Depth IntInf | Incumbent    BestBd   Gap | It/Node Time

     0     0 135069.024    0   29 356879.000 135069.024  62.2%     -    4s
H    0     0                    148641.01560 135069.024  9.13%     -    4s
H    0     0                    143822.88559 135069.024  6.09%     -    4s
     0     0 135095.943    0   16 143822.886 135095.943  6.07%     -    7s
H    0     0                    142058.64348 135098.979  4.90%     -    8s
H    0     0                    141981.01422 135098.979  4.85%     -    8s
H    0     0                    135328.86888 135098.979  0.17%     -    8s
     0     0 135098.979    0   15 135328.869 135098.979  0.17%     -    8s
     0     0 135099.260    0   10 135328.869 135099.260  0.17%     -    9s
     0     0 135100.238    0   10 135328.869 135100.238  0.17%     -   10s
     0     0 135100.238    0   10 135328.869 135100.238  0.17%     -   10s
     0     0 135100.959    0    8 135328.869 135100.959  0.17%     -   11s
     0     0 135101.027    0    8 135328.869 135101.027  0.17%     -   13s
     0     0 135101.027    0    8 135328.869 135101.027  0.17%     -   13s
     0     0 135101.585    0    8 135328.869 135101.585  0.17%     -   14s
     0     0 135101.683    0    9 135328.869 135101.683  0.17%     -   14s
     0     0 135101.959    0    7 135328.869 135101.959  0.17%     -   15s
     0     0 135101.996    0    6 135328.869 135101.996  0.17%     -   16s
     0     0 135102.000    0    6 135328.869 135102.000  0.17%     -   17s
     0     0 135102.362    0    6 135328.869 135102.362  0.17%     -   18s
     0     0 135102.402    0    6 135328.869 135102.402  0.17%     -   18s
     0     0 135102.429    0    6 135328.869 135102.429  0.17%     -   19s
     0     0 135102.432    0    7 135328.869 135102.432  0.17%     -   19s
     0     0 135102.471    0    7 135328.869 135102.471  0.17%     -   20s
     0     0 135102.471    0    7 135328.869 135102.471  0.17%     -   21s
     0     2 135102.471    0    7 135328.869 135102.471  0.17%     -   22s
     7    16 135108.491    3    4 135328.869 135106.396  0.16%  74.9   28s
    23    32 135109.260    5    4 135328.869 135107.040  0.16%  86.3   30s
    57    66 135110.319    9    6 135328.869 135107.824  0.16%  66.4   35s
H   63    66                    135247.93853 135107.824  0.10%  64.3   35s
H   70    91                    135150.64654 135107.824  0.03%  61.1   38s
H   71    91                    135147.08249 135107.824  0.03%  60.6   38s
H   72    91                    135145.83549 135107.824  0.03%  59.9   38s
    90   162 135111.626   14    3 135145.835 135107.824  0.03%  55.1   45s
H   99   162                    135145.05416 135107.824  0.03%  51.4   45s
H  100   162                    135144.37235 135107.824  0.03%  51.1   45s
H  101   162                    135144.17398 135107.824  0.03%  50.7   45s
   163   285 135112.368   22    5 135144.174 135107.824  0.03%  38.7   57s
H  187   285                    135144.12235 135107.824  0.03%  35.1   57s
   323   420 135114.612   45    3 135144.122 135107.824  0.03%  27.1   76s
H  347   420                    135143.73585 135107.824  0.03%  26.6   76s
H  535   419                    135143.45585 135107.824  0.03%  25.4   80s
   538   420 135123.272   25   29 135143.456 135107.824  0.03%  25.2   89s
   539   421 135119.203   26   17 135143.456 135107.824  0.03%  25.2   94s
   541   422 135128.300   19    9 135143.456 135107.824  0.03%  25.1   95s
   547   426 135117.906    7    8 135143.456 135107.824  0.03%  24.8  101s
   550   428 135122.745    5    7 135143.456 135107.824  0.03%  24.7  107s
   552   430 135115.299    6    7 135143.456 135107.824  0.03%  24.6  111s
   554   431 135128.623   45    7 135143.456 135107.866  0.03%  24.5  117s
   556   432 135118.057   15    7 135143.456 135108.726  0.03%  24.4  122s
   557   433 135119.442   27    7 135143.456 135108.726  0.03%  24.4  125s
   565   447 135109.019   14    6 135143.456 135108.726  0.03%  85.1  132s
   573   453 135109.248   15    5 135143.456 135108.726  0.03%  84.7  135s
   597   466 135116.017   16    5 135143.456 135108.726  0.03%  84.1  142s
   615   480 135109.642   17    3 135143.456 135108.726  0.03%  84.1  145s
   650   506 135111.099   19    5 135143.456 135108.726  0.03%  84.4  152s
   673   527 135110.321   21    4 135143.456 135108.726  0.03%  83.6  157s
   708   563 135111.170   23    2 135143.456 135108.726  0.03%  84.4  166s
   767   620 135126.759   28    6 135143.456 135108.841  0.03%  84.7  179s
   863   683 135120.192   33    3 135143.456 135109.011  0.03%  83.9  197s
   989   772 135121.977   44    2 135143.456 135109.151  0.03%  85.2  221s
  1175   864 135115.866   56    4 135143.456 135109.151  0.03%  81.7  250s
  1405  1276 135122.274   69    3 135143.456 135109.153  0.03%  77.5  276s
  2010  1583 135116.164   76    1 135143.456 135110.082  0.02%  60.6  300s

Cutting planes:
  Gomory: 3
  Implied bound: 94
  MIR: 64
  Mixing: 2
  Flow cover: 16
  Relax-and-lift: 10

Explored 2585 nodes (222982 simplex iterations) in 300.07 seconds (189.88 work units)
Thread count was 16 (of 16 available processors)

Solution count 7: 135143 135248 135329 ... 356879

Time limit reached
Best objective 1.351434558548e+05, best bound 1.351107700672e+05, gap 0.0242%
